10
870 973 657  993
880 483 699  449
891 586 535  702
927 705 684  536
885 603 568  603
824 599 477  275
980 665 726  391
692 780 495  167
752 609 830  868
814 730 957  306
10
654 741 87  180 215
335 311 799  224 200
323 348 603  53 112
635 193 462  78 232
757 537 456  292 170
780 454 78  3 183
47 703 240  259 40
491 47 620  13 198
427 323 756  127 38
499 185 229  293 29
